NAME: random-90-21981
TYPE: TSP
COMMENT: size=90 seed=21981
DIMENSION: 182
EDGE_WEIGHT_TYPE: EUC_2D
NODE_COORD_SECTION
+0 667 792
-0 667 792
+1 960 468
-1 666 784
+2 106 914
-2 77 66
+3 197 129
-3 22 422
+4 243 806
-4 771 929
+5 371 324
-5 467 220
+6 807 719
-6 532 387
+7 328 71
-7 334 115
+8 376 106
-8 797 515
+9 217 147
-9 398 991
+10 417 973
-10 585 943
+11 98 586
-11 367 709
+12 196 193
-12 325 946
+13 326 890
-13 949 317
+14 626 319
-14 635 686
+15 687 763
-15 413 780
+16 292 667
-16 487 130
+17 364 486
-17 456 740
+18 705 111
-18 897 958
+19 902 116
-19 439 226
+20 3 729
-20 893 77
+21 829 756
-21 251 909
+22 488 781
-22 553 412
+23 800 788
-23 241 281
+24 517 38
-24 85 154
+25 411 562
-25 940 675
+26 831 643
-26 498 735
+27 105 645
-27 76 755
+28 915 62
-28 37 662
+29 685 47
-29 238 870
+30 60 772
-30 659 266
+31 765 114
-31 948 299
+32 414 309
-32 190 261
+33 754 340
-33 867 667
+34 147 898
-34 69 739
+35 553 211
-35 50 285
+36 38 695
-36 141 300
+37 608 400
-37 779 263
+38 5 609
-38 375 106
+39 614 755
-39 197 762
+40 454 2
-40 174 221
+41 397 321
-41 842 677
+42 624 561
-42 405 365
+43 281 423
-43 350 380
+44 936 36
-44 705 831
+45 431 403
-45 525 846
+46 326 728
-46 690 772
+47 957 486
-47 638 321
+48 576 25
-48 867 334
+49 138 315
-49 667 943
+50 196 950
-50 852 710
+51 835 242
-51 160 744
+52 658 757
-52 121 858
+53 541 130
-53 193 681
+54 448 927
-54 500 32
+55 310 775
-55 47 105
+56 820 350
-56 22 887
+57 694 525
-57 728 99
+58 682 131
-58 2 700
+59 428 527
-59 153 525
+60 808 100
-60 183 76
+61 881 559
-61 389 676
+62 143 802
-62 553 585
+63 295 468
-63 926 762
+64 496 638
-64 294 639
+65 485 170
-65 363 568
+66 278 577
-66 74 689
+67 690 383
-67 914 956
+68 57 837
-68 826 436
+69 516 814
-69 508 456
+70 295 716
-70 722 893
+71 916 115
-71 435 868
+72 948 183
-72 453 400
+73 888 979
-73 809 69
+74 479 585
-74 399 213
+75 305 894
-75 778 865
+76 120 161
-76 87 56
+77 895 31
-77 41 565
+78 192 228
-78 456 502
+79 49 53
-79 769 858
+80 667 364
-80 252 709
+81 142 676
-81 963 488
+82 22 738
-82 26 774
+83 551 390
-83 578 172
+84 241 920
-84 446 100
+85 278 122
-85 343 921
+86 546 876
-86 478 151
+87 339 77
-87 404 395
+88 429 296
-88 726 723
+89 554 506
-89 320 38
+90 434 846
-90 108 732
PRECEDENCE_SECTION
+0 -0
+1 -1
+2 -2
+3 -3
+4 -4
+5 -5
+6 -6
+7 -7
+8 -8
+9 -9
+10 -10
+11 -11
+12 -12
+13 -13
+14 -14
+15 -15
+16 -16
+17 -17
+18 -18
+19 -19
+20 -20
+21 -21
+22 -22
+23 -23
+24 -24
+25 -25
+26 -26
+27 -27
+28 -28
+29 -29
+30 -30
+31 -31
+32 -32
+33 -33
+34 -34
+35 -35
+36 -36
+37 -37
+38 -38
+39 -39
+40 -40
+41 -41
+42 -42
+43 -43
+44 -44
+45 -45
+46 -46
+47 -47
+48 -48
+49 -49
+50 -50
+51 -51
+52 -52
+53 -53
+54 -54
+55 -55
+56 -56
+57 -57
+58 -58
+59 -59
+60 -60
+61 -61
+62 -62
+63 -63
+64 -64
+65 -65
+66 -66
+67 -67
+68 -68
+69 -69
+70 -70
+71 -71
+72 -72
+73 -73
+74 -74
+75 -75
+76 -76
+77 -77
+78 -78
+79 -79
+80 -80
+81 -81
+82 -82
+83 -83
+84 -84
+85 -85
+86 -86
+87 -87
+88 -88
+89 -89
+90 -90
EOF
